c "random instance"
p edges 150 3314
e 1 11
e 1 12
e 1 21
e 1 22
e 1 33
e 1 35
e 1 36
e 1 39
e 1 43
e 1 45
e 1 48
e 1 50
e 1 53
e 1 58
e 1 61
e 1 62
e 1 67
e 1 68
e 1 73
e 1 77
e 1 81
e 1 85
e 1 87
e 1 93
e 1 101
e 1 104
e 1 108
e 1 109
e 1 117
e 1 118
e 1 120
e 1 123
e 1 126
e 1 130
e 1 135
e 1 139
e 1 141
e 1 147
e 1 148
e 1 149
e 2 6
e 2 10
e 2 11
e 2 20
e 2 23
e 2 27
e 2 30
e 2 32
e 2 37
e 2 39
e 2 40
e 2 41
e 2 42
e 2 46
e 2 47
e 2 53
e 2 54
e 2 57
e 2 61
e 2 64
e 2 66
e 2 68
e 2 78
e 2 83
e 2 89
e 2 97
e 2 100
e 2 103
e 2 105
e 2 106
e 2 108
e 2 112
e 2 113
e 2 114
e 2 120
e 2 122
e 2 126
e 2 128
e 2 133
e 2 134
e 2 142
e 2 144
e 2 149
e 3 4
e 3 6
e 3 9
e 3 19
e 3 21
e 3 22
e 3 26
e 3 30
e 3 31
e 3 33
e 3 38
e 3 47
e 3 59
e 3 60
e 3 64
e 3 65
e 3 68
e 3 70
e 3 80
e 3 82
e 3 86
e 3 92
e 3 95
e 3 98
e 3 99
e 3 103
e 3 107
e 3 109
e 3 110
e 3 116
e 3 118
e 3 122
e 3 123
e 3 124
e 3 125
e 3 127
e 3 129
e 3 131
e 3 135
e 3 138
e 3 139
e 3 142
e 3 143
e 3 150
e 4 7
e 4 8
e 4 10
e 4 12
e 4 21
e 4 27
e 4 29
e 4 39
e 4 41
e 4 43
e 4 45
e 4 49
e 4 50
e 4 52
e 4 54
e 4 61
e 4 72
e 4 77
e 4 79
e 4 80
e 4 85
e 4 86
e 4 89
e 4 92
e 4 94
e 4 105
e 4 106
e 4 108
e 4 111
e 4 117
e 4 118
e 4 122
e 4 123
e 4 128
e 4 130
e 4 131
e 4 143
e 4 148
e 5 6
e 5 8
e 5 10
e 5 11
e 5 15
e 5 17
e 5 19
e 5 23
e 5 25
e 5 27
e 5 28
e 5 30
e 5 34
e 5 35
e 5 36
e 5 40
e 5 43
e 5 49
e 5 50
e 5 57
e 5 58
e 5 59
e 5 60
e 5 61
e 5 63
e 5 66
e 5 71
e 5 72
e 5 75
e 5 76
e 5 79
e 5 80
e 5 81
e 5 83
e 5 84
e 5 86
e 5 92
e 5 98
e 5 99
e 5 100
e 5 103
e 5 105
e 5 109
e 5 113
e 5 116
e 5 118
e 5 131
e 5 133
e 5 134
e 5 135
e 5 137
e 5 138
e 5 140
e 5 142
e 5 146
e 5 149
e 5 150
e 6 8
e 6 10
e 6 11
e 6 15
e 6 16
e 6 18
e 6 24
e 6 26
e 6 27
e 6 30
e 6 32
e 6 34
e 6 36
e 6 38
e 6 39
e 6 41
e 6 43
e 6 55
e 6 58
e 6 60
e 6 61
e 6 70
e 6 73
e 6 74
e 6 75
e 6 76
e 6 79
e 6 81
e 6 86
e 6 88
e 6 91
e 6 93
e 6 94
e 6 96
e 6 101
e 6 102
e 6 109
e 6 114
e 6 116
e 6 118
e 6 119
e 6 126
e 6 128
e 6 134
e 6 138
e 6 141
e 6 142
e 6 143
e 6 148
e 7 11
e 7 18
e 7 19
e 7 23
e 7 25
e 7 30
e 7 31
e 7 35
e 7 39
e 7 45
e 7 48
e 7 50
e 7 53
e 7 56
e 7 61
e 7 66
e 7 72
e 7 75
e 7 80
e 7 84
e 7 87
e 7 88
e 7 92
e 7 96
e 7 107
e 7 108
e 7 109
e 7 118
e 7 120
e 7 127
e 7 129
e 7 131
e 7 137
e 7 139
e 7 140
e 7 148
e 7 149
e 7 150
e 8 15
e 8 20
e 8 25
e 8 26
e 8 27
e 8 30
e 8 42
e 8 44
e 8 46
e 8 49
e 8 50
e 8 55
e 8 56
e 8 57
e 8 64
e 8 65
e 8 72
e 8 82
e 8 83
e 8 84
e 8 89
e 8 93
e 8 95
e 8 102
e 8 103
e 8 109
e 8 116
e 8 119
e 8 122
e 8 123
e 8 128
e 8 133
e 8 136
e 8 141
e 8 142
e 8 145
e 8 148
e 9 20
e 9 23
e 9 28
e 9 30
e 9 32
e 9 35
e 9 47
e 9 52
e 9 53
e 9 56
e 9 61
e 9 66
e 9 69
e 9 70
e 9 72
e 9 76
e 9 79
e 9 81
e 9 85
e 9 87
e 9 95
e 9 98
e 9 100
e 9 103
e 9 104
e 9 106
e 9 108
e 9 111
e 9 112
e 9 121
e 9 124
e 9 127
e 9 133
e 9 138
e 9 139
e 9 140
e 9 141
e 9 144
e 9 147
e 9 148
e 10 17
e 10 18
e 10 20
e 10 22
e 10 25
e 10 29
e 10 32
e 10 33
e 10 35
e 10 39
e 10 44
e 10 46
e 10 47
e 10 49
e 10 54
e 10 55
e 10 56
e 10 57
e 10 62
e 10 63
e 10 64
e 10 67
e 10 69
e 10 70
e 10 71
e 10 72
e 10 73
e 10 74
e 10 75
e 10 76
e 10 79
e 10 80
e 10 84
e 10 90
e 10 93
e 10 94
e 10 95
e 10 98
e 10 109
e 10 112
e 10 113
e 10 114
e 10 119
e 10 129
e 10 130
e 10 131
e 10 134
e 10 135
e 10 141
e 10 142
e 10 143
e 10 150
e 11 13
e 11 22
e 11 23
e 11 24
e 11 27
e 11 28
e 11 39
e 11 40
e 11 42
e 11 46
e 11 53
e 11 55
e 11 59
e 11 65
e 11 66
e 11 69
e 11 80
e 11 84
e 11 87
e 11 94
e 11 99
e 11 102
e 11 110
e 11 112
e 11 113
e 11 120
e 11 122
e 11 125
e 11 129
e 11 132
e 11 136
e 11 138
e 11 140
e 11 144
e 11 148
e 11 149
e 11 150
e 12 19
e 12 25
e 12 27
e 12 35
e 12 39
e 12 40
e 12 41
e 12 50
e 12 61
e 12 66
e 12 67
e 12 71
e 12 78
e 12 82
e 12 85
e 12 86
e 12 90
e 12 92
e 12 94
e 12 95
e 12 99
e 12 101
e 12 103
e 12 105
e 12 109
e 12 112
e 12 113
e 12 114
e 12 118
e 12 130
e 12 134
e 12 143
e 12 147
e 12 149
e 12 150
e 13 16
e 13 18
e 13 27
e 13 38
e 13 43
e 13 48
e 13 50
e 13 51
e 13 53
e 13 54
e 13 60
e 13 61
e 13 62
e 13 63
e 13 66
e 13 71
e 13 72
e 13 75
e 13 79
e 13 82
e 13 87
e 13 89
e 13 91
e 13 96
e 13 97
e 13 102
e 13 105
e 13 116
e 13 117
e 13 118
e 13 124
e 13 126
e 13 127
e 13 139
e 13 141
e 13 142
e 13 143
e 13 144
e 13 146
e 13 148
e 14 16
e 14 17
e 14 18
e 14 21
e 14 23
e 14 24
e 14 29
e 14 30
e 14 31
e 14 32
e 14 36
e 14 38
e 14 40
e 14 41
e 14 42
e 14 43
e 14 45
e 14 46
e 14 51
e 14 58
e 14 72
e 14 75
e 14 77
e 14 79
e 14 83
e 14 84
e 14 85
e 14 87
e 14 88
e 14 96
e 14 100
e 14 101
e 14 107
e 14 108
e 14 110
e 14 115
e 14 116
e 14 119
e 14 129
e 14 133
e 14 134
e 14 140
e 14 141
e 14 146
e 15 21
e 15 26
e 15 31
e 15 32
e 15 34
e 15 35
e 15 36
e 15 38
e 15 39
e 15 47
e 15 48
e 15 56
e 15 59
e 15 61
e 15 62
e 15 63
e 15 69
e 15 71
e 15 72
e 15 73
e 15 87
e 15 93
e 15 95
e 15 98
e 15 99
e 15 111
e 15 112
e 15 119
e 15 121
e 15 130
e 15 133
e 15 136
e 15 146
e 15 148
e 15 149
e 16 22
e 16 24
e 16 25
e 16 26
e 16 28
e 16 31
e 16 35
e 16 40
e 16 49
e 16 63
e 16 65
e 16 66
e 16 68
e 16 69
e 16 70
e 16 78
e 16 83
e 16 85
e 16 87
e 16 93
e 16 98
e 16 103
e 16 105
e 16 109
e 16 114
e 16 118
e 16 119
e 16 125
e 16 126
e 16 127
e 16 130
e 16 131
e 16 134
e 16 135
e 16 136
e 16 142
e 16 145
e 16 147
e 16 148
e 16 150
e 17 25
e 17 34
e 17 36
e 17 41
e 17 46
e 17 47
e 17 53
e 17 57
e 17 58
e 17 59
e 17 61
e 17 65
e 17 66
e 17 67
e 17 70
e 17 71
e 17 72
e 17 75
e 17 83
e 17 84
e 17 86
e 17 89
e 17 92
e 17 93
e 17 94
e 17 95
e 17 96
e 17 98
e 17 99
e 17 102
e 17 103
e 17 110
e 17 116
e 17 117
e 17 131
e 17 132
e 17 136
e 17 138
e 17 139
e 17 146
e 17 147
e 17 149
e 18 30
e 18 34
e 18 44
e 18 46
e 18 48
e 18 51
e 18 52
e 18 53
e 18 54
e 18 57
e 18 63
e 18 67
e 18 71
e 18 75
e 18 79
e 18 80
e 18 81
e 18 84
e 18 86
e 18 89
e 18 92
e 18 94
e 18 95
e 18 100
e 18 101
e 18 103
e 18 104
e 18 105
e 18 106
e 18 110
e 18 118
e 18 147
e 18 148
e 19 26
e 19 29
e 19 30
e 19 31
e 19 34
e 19 35
e 19 37
e 19 38
e 19 39
e 19 40
e 19 42
e 19 47
e 19 50
e 19 57
e 19 59
e 19 61
e 19 69
e 19 72
e 19 77
e 19 79
e 19 80
e 19 81
e 19 83
e 19 85
e 19 86
e 19 88
e 19 89
e 19 102
e 19 103
e 19 104
e 19 109
e 19 110
e 19 115
e 19 117
e 19 127
e 19 128
e 19 130
e 19 131
e 19 136
e 19 138
e 19 140
e 19 147
e 19 150
e 20 22
e 20 26
e 20 30
e 20 37
e 20 42
e 20 44
e 20 46
e 20 47
e 20 48
e 20 51
e 20 53
e 20 59
e 20 61
e 20 63
e 20 67
e 20 69
e 20 70
e 20 71
e 20 72
e 20 74
e 20 86
e 20 92
e 20 94
e 20 95
e 20 100
e 20 102
e 20 105
e 20 107
e 20 108
e 20 109
e 20 112
e 20 116
e 20 122
e 20 125
e 20 129
e 20 132
e 20 137
e 20 144
e 20 145
e 21 23
e 21 25
e 21 27
e 21 32
e 21 33
e 21 37
e 21 42
e 21 43
e 21 48
e 21 52
e 21 53
e 21 56
e 21 59
e 21 60
e 21 64
e 21 68
e 21 70
e 21 71
e 21 72
e 21 80
e 21 82
e 21 83
e 21 84
e 21 85
e 21 86
e 21 92
e 21 95
e 21 96
e 21 108
e 21 109
e 21 110
e 21 114
e 21 115
e 21 116
e 21 121
e 21 124
e 21 125
e 21 130
e 21 133
e 21 144
e 21 148
e 22 23
e 22 27
e 22 30
e 22 33
e 22 37
e 22 38
e 22 39
e 22 42
e 22 43
e 22 44
e 22 46
e 22 51
e 22 58
e 22 74
e 22 75
e 22 77
e 22 80
e 22 81
e 22 83
e 22 91
e 22 92
e 22 95
e 22 105
e 22 106
e 22 119
e 22 120
e 22 124
e 22 129
e 22 130
e 22 132
e 22 139
e 22 140
e 22 142
e 22 144
e 22 146
e 22 149
e 22 150
e 23 29
e 23 31
e 23 35
e 23 37
e 23 42
e 23 46
e 23 48
e 23 49
e 23 50
e 23 51
e 23 56
e 23 57
e 23 59
e 23 60
e 23 66
e 23 67
e 23 68
e 23 69
e 23 72
e 23 80
e 23 81
e 23 83
e 23 94
e 23 98
e 23 102
e 23 109
e 23 110
e 23 111
e 23 116
e 23 132
e 23 135
e 23 136
e 23 137
e 23 139
e 23 141
e 23 144
e 23 146
e 23 147
e 23 149
e 24 38
e 24 39
e 24 44
e 24 49
e 24 52
e 24 59
e 24 62
e 24 65
e 24 66
e 24 67
e 24 70
e 24 72
e 24 73
e 24 74
e 24 82
e 24 86
e 24 87
e 24 89
e 24 90
e 24 91
e 24 93
e 24 95
e 24 97
e 24 98
e 24 99
e 24 100
e 24 101
e 24 105
e 24 106
e 24 107
e 24 108
e 24 109
e 24 113
e 24 114
e 24 117
e 24 121
e 24 123
e 24 126
e 24 128
e 24 134
e 24 137
e 24 146
e 24 147
e 24 149
e 25 26
e 25 29
e 25 32
e 25 39
e 25 56
e 25 57
e 25 59
e 25 64
e 25 67
e 25 70
e 25 79
e 25 86
e 25 87
e 25 89
e 25 90
e 25 107
e 25 110
e 25 115
e 25 116
e 25 119
e 25 121
e 25 122
e 25 124
e 25 125
e 25 130
e 25 133
e 25 139
e 25 148
e 26 29
e 26 32
e 26 36
e 26 43
e 26 50
e 26 51
e 26 52
e 26 58
e 26 60
e 26 63
e 26 67
e 26 72
e 26 84
e 26 86
e 26 87
e 26 89
e 26 93
e 26 100
e 26 102
e 26 103
e 26 115
e 26 117
e 26 121
e 26 124
e 26 125
e 26 129
e 26 135
e 26 137
e 26 139
e 26 141
e 26 142
e 26 143
e 26 144
e 26 149
e 27 28
e 27 36
e 27 40
e 27 44
e 27 45
e 27 51
e 27 54
e 27 58
e 27 60
e 27 64
e 27 66
e 27 71
e 27 72
e 27 74
e 27 81
e 27 83
e 27 103
e 27 109
e 27 113
e 27 114
e 27 119
e 27 121
e 27 125
e 27 130
e 27 132
e 27 137
e 27 138
e 27 141
e 27 145
e 27 150
e 28 31
e 28 32
e 28 35
e 28 36
e 28 42
e 28 44
e 28 45
e 28 46
e 28 51
e 28 53
e 28 55
e 28 59
e 28 60
e 28 62
e 28 63
e 28 69
e 28 71
e 28 74
e 28 75
e 28 78
e 28 83
e 28 90
e 28 93
e 28 94
e 28 95
e 28 102
e 28 106
e 28 108
e 28 121
e 28 123
e 28 125
e 28 126
e 28 128
e 28 129
e 28 130
e 28 134
e 28 135
e 28 136
e 28 138
e 28 145
e 28 149
e 29 31
e 29 32
e 29 34
e 29 36
e 29 37
e 29 39
e 29 40
e 29 42
e 29 47
e 29 52
e 29 63
e 29 65
e 29 69
e 29 73
e 29 75
e 29 80
e 29 82
e 29 83
e 29 88
e 29 91
e 29 94
e 29 107
e 29 109
e 29 113
e 29 114
e 29 117
e 29 118
e 29 120
e 29 121
e 29 122
e 29 124
e 29 125
e 29 128
e 29 130
e 29 134
e 29 137
e 29 139
e 29 142
e 29 148
e 29 149
e 30 37
e 30 43
e 30 60
e 30 66
e 30 68
e 30 69
e 30 70
e 30 77
e 30 83
e 30 87
e 30 90
e 30 91
e 30 94
e 30 99
e 30 100
e 30 107
e 30 110
e 30 112
e 30 113
e 30 114
e 30 121
e 30 124
e 30 125
e 30 126
e 30 131
e 30 141
e 30 150
e 31 36
e 31 38
e 31 39
e 31 41
e 31 46
e 31 56
e 31 61
e 31 62
e 31 63
e 31 69
e 31 71
e 31 72
e 31 73
e 31 83
e 31 84
e 31 91
e 31 92
e 31 95
e 31 97
e 31 103
e 31 104
e 31 106
e 31 109
e 31 110
e 31 114
e 31 116
e 31 119
e 31 122
e 31 123
e 31 125
e 31 130
e 31 133
e 31 135
e 31 142
e 31 144
e 31 149
e 32 37
e 32 44
e 32 54
e 32 57
e 32 62
e 32 64
e 32 70
e 32 80
e 32 81
e 32 85
e 32 86
e 32 88
e 32 91
e 32 92
e 32 107
e 32 112
e 32 113
e 32 114
e 32 116
e 32 117
e 32 121
e 32 124
e 32 125
e 32 127
e 32 130
e 32 133
e 32 138
e 32 145
e 32 146
e 32 147
e 32 148
e 33 37
e 33 46
e 33 47
e 33 49
e 33 50
e 33 51
e 33 52
e 33 53
e 33 58
e 33 61
e 33 63
e 33 66
e 33 74
e 33 75
e 33 78
e 33 80
e 33 85
e 33 86
e 33 91
e 33 95
e 33 99
e 33 100
e 33 101
e 33 104
e 33 105
e 33 107
e 33 111
e 33 113
e 33 125
e 33 128
e 33 129
e 33 133
e 33 144
e 33 147
e 34 36
e 34 39
e 34 44
e 34 47
e 34 53
e 34 54
e 34 56
e 34 57
e 34 60
e 34 61
e 34 65
e 34 67
e 34 69
e 34 73
e 34 83
e 34 85
e 34 87
e 34 90
e 34 95
e 34 98
e 34 101
e 34 102
e 34 106
e 34 108
e 34 110
e 34 112
e 34 116
e 34 118
e 34 121
e 34 125
e 34 127
e 34 136
e 34 143
e 34 149
e 35 46
e 35 47
e 35 48
e 35 52
e 35 53
e 35 54
e 35 55
e 35 60
e 35 63
e 35 64
e 35 65
e 35 67
e 35 68
e 35 70
e 35 79
e 35 85
e 35 89
e 35 94
e 35 95
e 35 97
e 35 99
e 35 103
e 35 104
e 35 105
e 35 111
e 35 115
e 35 116
e 35 117
e 35 122
e 35 123
e 35 126
e 35 128
e 35 131
e 35 133
e 35 134
e 35 139
e 35 143
e 35 144
e 35 145
e 35 150
e 36 37
e 36 39
e 36 45
e 36 46
e 36 49
e 36 50
e 36 51
e 36 55
e 36 56
e 36 59
e 36 60
e 36 69
e 36 70
e 36 72
e 36 76
e 36 78
e 36 80
e 36 81
e 36 83
e 36 87
e 36 88
e 36 91
e 36 92
e 36 93
e 36 108
e 36 109
e 36 114
e 36 118
e 36 119
e 36 128
e 36 132
e 36 133
e 36 134
e 36 137
e 36 138
e 36 139
e 36 142
e 36 143
e 36 147
e 36 148
e 37 38
e 37 43
e 37 45
e 37 46
e 37 55
e 37 56
e 37 58
e 37 66
e 37 71
e 37 75
e 37 76
e 37 82
e 37 86
e 37 90
e 37 92
e 37 93
e 37 94
e 37 96
e 37 103
e 37 106
e 37 108
e 37 109
e 37 110
e 37 111
e 37 113
e 37 114
e 37 118
e 37 121
e 37 124
e 37 129
e 37 130
e 37 131
e 37 135
e 37 138
e 37 140
e 37 144
e 37 146
e 37 148
e 38 43
e 38 59
e 38 61
e 38 72
e 38 73
e 38 76
e 38 80
e 38 87
e 38 88
e 38 90
e 38 91
e 38 92
e 38 98
e 38 100
e 38 102
e 38 112
e 38 114
e 38 119
e 38 126
e 38 127
e 38 132
e 38 135
e 38 136
e 38 137
e 38 144
e 39 41
e 39 46
e 39 51
e 39 52
e 39 54
e 39 56
e 39 58
e 39 59
e 39 62
e 39 68
e 39 70
e 39 75
e 39 76
e 39 83
e 39 84
e 39 86
e 39 87
e 39 90
e 39 92
e 39 93
e 39 95
e 39 99
e 39 101
e 39 111
e 39 113
e 39 115
e 39 116
e 39 119
e 39 122
e 39 127
e 39 133
e 39 135
e 39 136
e 39 139
e 39 147
e 39 150
e 40 46
e 40 49
e 40 50
e 40 59
e 40 60
e 40 63
e 40 64
e 40 67
e 40 69
e 40 74
e 40 78
e 40 79
e 40 80
e 40 82
e 40 84
e 40 86
e 40 89
e 40 91
e 40 94
e 40 100
e 40 103
e 40 105
e 40 106
e 40 107
e 40 118
e 40 122
e 40 123
e 40 127
e 40 128
e 40 130
e 40 132
e 40 134
e 40 136
e 40 139
e 40 143
e 40 144
e 40 146
e 41 42
e 41 45
e 41 51
e 41 62
e 41 67
e 41 69
e 41 73
e 41 75
e 41 77
e 41 78
e 41 81
e 41 82
e 41 83
e 41 85
e 41 87
e 41 89
e 41 94
e 41 96
e 41 98
e 41 103
e 41 105
e 41 106
e 41 111
e 41 112
e 41 119
e 41 124
e 41 125
e 41 128
e 41 138
e 41 139
e 41 148
e 41 150
e 42 48
e 42 51
e 42 54
e 42 59
e 42 61
e 42 66
e 42 67
e 42 68
e 42 74
e 42 75
e 42 80
e 42 93
e 42 97
e 42 100
e 42 103
e 42 110
e 42 113
e 42 120
e 42 123
e 42 129
e 42 134
e 42 143
e 42 144
e 42 145
e 43 58
e 43 67
e 43 79
e 43 80
e 43 87
e 43 88
e 43 91
e 43 95
e 43 96
e 43 97
e 43 105
e 43 110
e 43 119
e 43 134
e 43 140
e 43 143
e 43 144
e 43 146
e 43 147
e 44 63
e 44 65
e 44 71
e 44 76
e 44 77
e 44 78
e 44 80
e 44 89
e 44 97
e 44 103
e 44 105
e 44 108
e 44 113
e 44 126
e 44 128
e 44 129
e 44 134
e 44 135
e 44 141
e 44 142
e 44 143
e 44 150
e 45 50
e 45 51
e 45 52
e 45 57
e 45 63
e 45 65
e 45 74
e 45 75
e 45 77
e 45 82
e 45 89
e 45 90
e 45 94
e 45 95
e 45 99
e 45 100
e 45 102
e 45 103
e 45 111
e 45 114
e 45 116
e 45 118
e 45 121
e 45 123
e 45 124
e 45 126
e 45 127
e 45 130
e 45 136
e 45 137
e 45 141
e 45 143
e 45 144
e 45 147
e 45 148
e 46 48
e 46 49
e 46 51
e 46 52
e 46 56
e 46 57
e 46 62
e 46 65
e 46 67
e 46 71
e 46 75
e 46 76
e 46 77
e 46 82
e 46 83
e 46 84
e 46 89
e 46 95
e 46 98
e 46 100
e 46 102
e 46 107
e 46 113
e 46 114
e 46 115
e 46 117
e 46 119
e 46 123
e 46 127
e 46 129
e 46 132
e 46 135
e 46 139
e 46 144
e 46 145
e 46 146
e 46 149
e 47 51
e 47 54
e 47 55
e 47 60
e 47 62
e 47 65
e 47 70
e 47 71
e 47 72
e 47 73
e 47 75
e 47 89
e 47 91
e 47 93
e 47 94
e 47 95
e 47 99
e 47 103
e 47 108
e 47 109
e 47 114
e 47 117
e 47 118
e 47 119
e 47 122
e 47 126
e 47 128
e 47 130
e 47 132
e 47 135
e 47 136
e 47 137
e 47 150
e 48 50
e 48 55
e 48 57
e 48 58
e 48 59
e 48 64
e 48 65
e 48 72
e 48 79
e 48 80
e 48 84
e 48 87
e 48 89
e 48 90
e 48 97
e 48 102
e 48 103
e 48 105
e 48 107
e 48 110
e 48 115
e 48 117
e 48 118
e 48 124
e 48 125
e 48 129
e 48 134
e 48 136
e 48 137
e 48 142
e 48 143
e 48 144
e 48 148
e 49 50
e 49 51
e 49 62
e 49 63
e 49 65
e 49 66
e 49 70
e 49 72
e 49 74
e 49 81
e 49 83
e 49 85
e 49 86
e 49 89
e 49 90
e 49 91
e 49 100
e 49 101
e 49 103
e 49 105
e 49 108
e 49 112
e 49 117
e 49 121
e 49 122
e 49 123
e 49 124
e 49 125
e 49 127
e 49 132
e 49 135
e 49 140
e 49 143
e 49 150
e 50 51
e 50 52
e 50 61
e 50 62
e 50 65
e 50 69
e 50 75
e 50 80
e 50 83
e 50 88
e 50 90
e 50 92
e 50 99
e 50 104
e 50 111
e 50 113
e 50 114
e 50 117
e 50 119
e 50 122
e 50 123
e 50 124
e 50 125
e 50 128
e 50 131
e 50 132
e 50 134
e 50 139
e 50 140
e 50 142
e 50 144
e 51 53
e 51 60
e 51 62
e 51 64
e 51 65
e 51 66
e 51 69
e 51 83
e 51 86
e 51 91
e 51 95
e 51 100
e 51 101
e 51 103
e 51 107
e 51 108
e 51 113
e 51 115
e 51 116
e 51 118
e 51 121
e 51 122
e 51 125
e 51 127
e 51 128
e 51 132
e 51 133
e 51 137
e 51 139
e 51 140
e 51 141
e 51 150
e 52 56
e 52 59
e 52 63
e 52 67
e 52 69
e 52 71
e 52 73
e 52 80
e 52 81
e 52 82
e 52 91
e 52 94
e 52 95
e 52 101
e 52 103
e 52 104
e 52 108
e 52 110
e 52 113
e 52 118
e 52 120
e 52 133
e 52 137
e 52 138
e 52 149
e 53 55
e 53 59
e 53 61
e 53 63
e 53 71
e 53 77
e 53 79
e 53 80
e 53 85
e 53 86
e 53 93
e 53 96
e 53 102
e 53 108
e 53 110
e 53 112
e 53 113
e 53 115
e 53 116
e 53 120
e 53 126
e 53 127
e 53 128
e 53 129
e 53 130
e 53 135
e 53 137
e 53 144
e 53 147
e 54 60
e 54 63
e 54 64
e 54 72
e 54 78
e 54 79
e 54 81
e 54 90
e 54 92
e 54 93
e 54 96
e 54 97
e 54 100
e 54 111
e 54 113
e 54 114
e 54 116
e 54 117
e 54 118
e 54 119
e 54 123
e 54 126
e 54 127
e 54 129
e 54 132
e 54 134
e 54 142
e 55 64
e 55 66
e 55 67
e 55 69
e 55 76
e 55 78
e 55 80
e 55 83
e 55 89
e 55 90
e 55 100
e 55 103
e 55 107
e 55 111
e 55 114
e 55 116
e 55 121
e 55 125
e 55 131
e 55 133
e 55 135
e 55 140
e 55 146
e 55 148
e 55 150
e 56 57
e 56 61
e 56 63
e 56 72
e 56 75
e 56 81
e 56 86
e 56 88
e 56 90
e 56 94
e 56 99
e 56 101
e 56 104
e 56 108
e 56 114
e 56 118
e 56 119
e 56 121
e 56 122
e 56 127
e 56 128
e 56 129
e 56 130
e 56 131
e 56 134
e 56 141
e 57 60
e 57 61
e 57 62
e 57 65
e 57 67
e 57 69
e 57 71
e 57 73
e 57 74
e 57 81
e 57 83
e 57 85
e 57 86
e 57 87
e 57 99
e 57 104
e 57 105
e 57 109
e 57 113
e 57 118
e 57 119
e 57 122
e 57 124
e 57 125
e 57 126
e 57 127
e 57 129
e 57 134
e 57 135
e 57 144
e 57 145
e 58 61
e 58 62
e 58 63
e 58 65
e 58 74
e 58 77
e 58 78
e 58 81
e 58 84
e 58 86
e 58 87
e 58 88
e 58 89
e 58 91
e 58 92
e 58 95
e 58 96
e 58 97
e 58 98
e 58 101
e 58 108
e 58 117
e 58 119
e 58 128
e 58 133
e 58 134
e 58 136
e 58 137
e 58 141
e 59 62
e 59 65
e 59 66
e 59 71
e 59 72
e 59 74
e 59 77
e 59 80
e 59 81
e 59 84
e 59 90
e 59 91
e 59 94
e 59 95
e 59 96
e 59 101
e 59 106
e 59 107
e 59 110
e 59 113
e 59 115
e 59 128
e 59 129
e 59 131
e 59 132
e 59 137
e 59 139
e 59 144
e 59 146
e 60 63
e 60 65
e 60 68
e 60 73
e 60 76
e 60 78
e 60 79
e 60 80
e 60 82
e 60 83
e 60 84
e 60 87
e 60 88
e 60 91
e 60 92
e 60 102
e 60 110
e 60 113
e 60 115
e 60 126
e 60 127
e 60 128
e 60 130
e 60 131
e 60 132
e 60 136
e 60 137
e 60 140
e 60 145
e 61 68
e 61 77
e 61 78
e 61 86
e 61 92
e 61 100
e 61 103
e 61 106
e 61 107
e 61 115
e 61 123
e 61 128
e 61 138
e 61 139
e 61 142
e 61 143
e 61 144
e 61 145
e 61 148
e 62 65
e 62 66
e 62 67
e 62 70
e 62 71
e 62 79
e 62 85
e 62 94
e 62 96
e 62 97
e 62 101
e 62 102
e 62 110
e 62 114
e 62 116
e 62 120
e 62 121
e 62 123
e 62 124
e 62 126
e 62 127
e 62 129
e 62 133
e 62 138
e 63 67
e 63 68
e 63 69
e 63 73
e 63 76
e 63 77
e 63 78
e 63 82
e 63 91
e 63 95
e 63 96
e 63 100
e 63 101
e 63 102
e 63 105
e 63 106
e 63 108
e 63 109
e 63 114
e 63 116
e 63 122
e 63 134
e 63 136
e 63 140
e 63 141
e 63 143
e 63 144
e 63 145
e 64 65
e 64 67
e 64 71
e 64 72
e 64 74
e 64 76
e 64 77
e 64 78
e 64 84
e 64 89
e 64 93
e 64 95
e 64 96
e 64 99
e 64 102
e 64 104
e 64 105
e 64 106
e 64 108
e 64 111
e 64 112
e 64 116
e 64 124
e 64 127
e 64 136
e 64 141
e 64 143
e 64 145
e 65 66
e 65 67
e 65 75
e 65 78
e 65 83
e 65 84
e 65 88
e 65 96
e 65 99
e 65 100
e 65 105
e 65 107
e 65 114
e 65 115
e 65 120
e 65 122
e 65 124
e 65 130
e 65 132
e 65 133
e 65 138
e 66 68
e 66 69
e 66 75
e 66 85
e 66 88
e 66 90
e 66 104
e 66 106
e 66 117
e 66 119
e 66 126
e 66 129
e 66 130
e 66 133
e 66 134
e 66 137
e 66 139
e 66 141
e 66 150
e 67 68
e 67 71
e 67 73
e 67 85
e 67 87
e 67 91
e 67 92
e 67 93
e 67 94
e 67 95
e 67 97
e 67 99
e 67 100
e 67 102
e 67 107
e 67 108
e 67 114
e 67 115
e 67 116
e 67 119
e 67 125
e 67 128
e 67 140
e 67 147
e 68 69
e 68 72
e 68 73
e 68 74
e 68 76
e 68 77
e 68 80
e 68 86
e 68 87
e 68 89
e 68 92
e 68 93
e 68 94
e 68 95
e 68 96
e 68 98
e 68 101
e 68 103
e 68 105
e 68 106
e 68 110
e 68 115
e 68 117
e 68 120
e 68 124
e 68 125
e 68 126
e 68 127
e 68 131
e 68 132
e 68 133
e 68 136
e 68 139
e 68 140
e 68 141
e 68 142
e 68 143
e 68 146
e 68 147
e 68 150
e 69 77
e 69 78
e 69 79
e 69 80
e 69 83
e 69 86
e 69 88
e 69 104
e 69 108
e 69 110
e 69 112
e 69 118
e 69 124
e 69 127
e 69 130
e 69 134
e 69 136
e 69 142
e 69 147
e 69 148
e 69 150
e 70 71
e 70 76
e 70 81
e 70 82
e 70 86
e 70 87
e 70 88
e 70 91
e 70 92
e 70 93
e 70 100
e 70 101
e 70 104
e 70 108
e 70 111
e 70 112
e 70 113
e 70 117
e 70 119
e 70 120
e 70 122
e 70 123
e 70 126
e 70 132
e 70 135
e 70 138
e 70 142
e 70 150
e 71 72
e 71 74
e 71 76
e 71 79
e 71 81
e 71 82
e 71 87
e 71 92
e 71 103
e 71 106
e 71 109
e 71 111
e 71 112
e 71 113
e 71 114
e 71 115
e 71 116
e 71 118
e 71 123
e 71 129
e 71 140
e 71 143
e 71 146
e 72 75
e 72 80
e 72 82
e 72 84
e 72 87
e 72 95
e 72 102
e 72 106
e 72 117
e 72 118
e 72 119
e 72 123
e 72 124
e 72 126
e 72 128
e 72 131
e 72 133
e 72 134
e 72 141
e 72 147
e 72 148
e 72 149
e 72 150
e 73 74
e 73 76
e 73 77
e 73 78
e 73 80
e 73 81
e 73 86
e 73 87
e 73 88
e 73 89
e 73 90
e 73 92
e 73 94
e 73 100
e 73 103
e 73 114
e 73 116
e 73 120
e 73 124
e 73 126
e 73 129
e 73 146
e 73 147
e 73 149
e 74 86
e 74 87
e 74 90
e 74 93
e 74 95
e 74 99
e 74 101
e 74 105
e 74 114
e 74 116
e 74 123
e 74 124
e 74 129
e 74 130
e 74 136
e 74 137
e 74 138
e 74 139
e 74 141
e 74 145
e 74 150
e 75 77
e 75 84
e 75 86
e 75 93
e 75 94
e 75 95
e 75 96
e 75 100
e 75 101
e 75 104
e 75 111
e 75 113
e 75 114
e 75 121
e 75 129
e 75 134
e 75 135
e 75 139
e 75 140
e 75 142
e 75 143
e 75 146
e 76 79
e 76 82
e 76 85
e 76 86
e 76 91
e 76 96
e 76 98
e 76 102
e 76 103
e 76 106
e 76 107
e 76 109
e 76 112
e 76 114
e 76 115
e 76 116
e 76 117
e 76 119
e 76 120
e 76 122
e 76 125
e 76 126
e 76 131
e 76 140
e 76 144
e 76 149
e 77 81
e 77 82
e 77 85
e 77 86
e 77 97
e 77 98
e 77 99
e 77 100
e 77 102
e 77 113
e 77 118
e 77 119
e 77 121
e 77 126
e 77 127
e 77 131
e 77 132
e 77 133
e 77 134
e 77 137
e 77 141
e 78 81
e 78 82
e 78 83
e 78 84
e 78 88
e 78 93
e 78 95
e 78 99
e 78 103
e 78 113
e 78 115
e 78 123
e 78 124
e 78 131
e 78 142
e 78 145
e 78 148
e 79 90
e 79 91
e 79 95
e 79 102
e 79 106
e 79 107
e 79 109
e 79 113
e 79 117
e 79 127
e 79 129
e 79 138
e 79 139
e 79 140
e 79 141
e 79 145
e 79 146
e 80 81
e 80 83
e 80 91
e 80 97
e 80 98
e 80 99
e 80 102
e 80 106
e 80 111
e 80 114
e 80 116
e 80 117
e 80 119
e 80 120
e 80 123
e 80 129
e 80 133
e 80 138
e 80 139
e 80 141
e 80 142
e 80 144
e 80 147
e 80 148
e 81 86
e 81 90
e 81 93
e 81 101
e 81 103
e 81 112
e 81 115
e 81 118
e 81 120
e 81 130
e 81 131
e 81 133
e 81 135
e 81 138
e 81 142
e 81 143
e 81 144
e 81 150
e 82 83
e 82 92
e 82 96
e 82 107
e 82 109
e 82 110
e 82 113
e 82 114
e 82 119
e 82 120
e 82 122
e 82 126
e 82 127
e 82 131
e 82 135
e 82 137
e 82 146
e 83 91
e 83 98
e 83 101
e 83 106
e 83 117
e 83 120
e 83 122
e 83 123
e 83 127
e 83 129
e 83 132
e 83 135
e 83 136
e 83 143
e 83 144
e 83 148
e 83 149
e 83 150
e 84 87
e 84 94
e 84 98
e 84 99
e 84 102
e 84 103
e 84 104
e 84 107
e 84 108
e 84 110
e 84 112
e 84 113
e 84 118
e 84 121
e 84 124
e 84 128
e 84 130
e 84 133
e 84 136
e 84 141
e 84 144
e 84 147
e 84 148
e 85 88
e 85 90
e 85 98
e 85 99
e 85 102
e 85 103
e 85 104
e 85 108
e 85 115
e 85 116
e 85 118
e 85 121
e 85 122
e 85 124
e 85 132
e 85 133
e 85 138
e 85 144
e 86 92
e 86 100
e 86 101
e 86 103
e 86 104
e 86 111
e 86 113
e 86 114
e 86 115
e 86 116
e 86 124
e 86 127
e 86 128
e 86 129
e 86 131
e 86 132
e 86 140
e 86 141
e 86 145
e 87 90
e 87 97
e 87 99
e 87 102
e 87 108
e 87 109
e 87 111
e 87 112
e 87 115
e 87 116
e 87 118
e 87 123
e 87 125
e 87 131
e 87 133
e 87 140
e 87 143
e 87 149
e 87 150
e 88 90
e 88 92
e 88 95
e 88 96
e 88 97
e 88 99
e 88 104
e 88 105
e 88 109
e 88 110
e 88 111
e 88 112
e 88 119
e 88 121
e 88 127
e 88 132
e 88 135
e 88 137
e 88 140
e 88 141
e 88 146
e 88 148
e 89 90
e 89 91
e 89 92
e 89 94
e 89 95
e 89 97
e 89 98
e 89 99
e 89 102
e 89 103
e 89 104
e 89 108
e 89 111
e 89 113
e 89 117
e 89 118
e 89 121
e 89 125
e 89 129
e 89 130
e 89 133
e 89 135
e 89 137
e 89 149
e 90 97
e 90 99
e 90 100
e 90 101
e 90 103
e 90 108
e 90 110
e 90 111
e 90 115
e 90 121
e 90 122
e 90 129
e 90 130
e 90 139
e 90 140
e 90 144
e 90 146
e 90 147
e 90 148
e 90 149
e 91 97
e 91 99
e 91 100
e 91 101
e 91 105
e 91 110
e 91 111
e 91 112
e 91 115
e 91 132
e 91 135
e 91 136
e 91 138
e 91 146
e 91 148
e 92 96
e 92 100
e 92 101
e 92 102
e 92 106
e 92 118
e 92 122
e 92 124
e 92 128
e 92 132
e 92 134
e 92 138
e 92 139
e 92 141
e 92 150
e 93 94
e 93 100
e 93 104
e 93 105
e 93 113
e 93 114
e 93 117
e 93 125
e 93 130
e 93 131
e 93 133
e 93 135
e 93 136
e 93 137
e 93 144
e 93 149
e 94 104
e 94 105
e 94 110
e 94 119
e 94 129
e 94 133
e 94 136
e 94 139
e 94 144
e 94 146
e 94 147
e 95 103
e 95 105
e 95 108
e 95 109
e 95 110
e 95 119
e 95 122
e 95 123
e 95 129
e 95 137
e 95 140
e 96 103
e 96 106
e 96 110
e 96 111
e 96 112
e 96 113
e 96 114
e 96 116
e 96 117
e 96 119
e 96 120
e 96 125
e 96 129
e 96 135
e 96 137
e 96 140
e 96 144
e 96 145
e 96 150
e 97 99
e 97 100
e 97 104
e 97 105
e 97 108
e 97 110
e 97 119
e 97 125
e 97 126
e 97 127
e 97 130
e 97 132
e 97 136
e 97 139
e 97 140
e 97 147
e 97 148
e 98 99
e 98 101
e 98 102
e 98 103
e 98 105
e 98 108
e 98 110
e 98 111
e 98 112
e 98 114
e 98 119
e 98 123
e 98 127
e 98 129
e 98 132
e 98 137
e 98 145
e 98 146
e 98 148
e 99 102
e 99 103
e 99 110
e 99 111
e 99 115
e 99 116
e 99 120
e 99 123
e 99 124
e 99 127
e 99 133
e 99 135
e 99 138
e 99 149
e 100 104
e 100 105
e 100 107
e 100 111
e 100 113
e 100 116
e 100 117
e 100 124
e 100 126
e 100 132
e 100 138
e 100 140
e 100 142
e 100 143
e 100 144
e 101 102
e 101 109
e 101 117
e 101 128
e 101 129
e 101 139
e 101 141
e 101 143
e 101 148
e 102 108
e 102 109
e 102 111
e 102 113
e 102 116
e 102 118
e 102 119
e 102 121
e 102 127
e 102 128
e 102 129
e 102 130
e 102 133
e 102 139
e 102 141
e 102 142
e 103 110
e 103 111
e 103 112
e 103 115
e 103 116
e 103 117
e 103 118
e 103 120
e 103 123
e 103 126
e 103 128
e 103 129
e 103 131
e 103 133
e 103 136
e 103 143
e 103 145
e 103 146
e 103 147
e 104 105
e 104 107
e 104 111
e 104 117
e 104 126
e 104 130
e 104 131
e 104 141
e 104 142
e 104 145
e 104 147
e 105 109
e 105 110
e 105 114
e 105 115
e 105 119
e 105 120
e 105 121
e 105 122
e 105 125
e 105 126
e 105 127
e 105 132
e 105 140
e 105 142
e 105 144
e 105 145
e 105 150
e 106 107
e 106 114
e 106 120
e 106 124
e 106 129
e 106 137
e 106 138
e 106 139
e 106 142
e 106 147
e 106 149
e 107 110
e 107 120
e 107 123
e 107 125
e 107 128
e 107 130
e 107 131
e 107 141
e 107 144
e 107 146
e 107 147
e 107 149
e 107 150
e 108 110
e 108 111
e 108 113
e 108 114
e 108 117
e 108 121
e 108 123
e 108 124
e 108 126
e 108 127
e 108 131
e 108 132
e 108 133
e 108 135
e 108 136
e 108 140
e 108 143
e 108 147
e 108 149
e 109 113
e 109 122
e 109 124
e 109 133
e 109 134
e 109 137
e 109 148
e 110 111
e 110 112
e 110 113
e 110 121
e 110 126
e 110 128
e 110 129
e 110 130
e 110 134
e 110 136
e 110 141
e 110 142
e 110 144
e 111 116
e 111 117
e 111 122
e 111 129
e 111 143
e 111 144
e 111 147
e 111 150
e 112 115
e 112 116
e 112 120
e 112 121
e 112 126
e 112 129
e 112 130
e 112 133
e 112 135
e 112 136
e 112 137
e 112 139
e 112 141
e 112 142
e 112 144
e 113 114
e 113 115
e 113 121
e 113 122
e 113 123
e 113 124
e 113 126
e 113 134
e 113 137
e 113 142
e 113 144
e 113 146
e 113 149
e 113 150
e 114 116
e 114 117
e 114 118
e 114 121
e 114 123
e 114 127
e 114 129
e 114 132
e 114 137
e 114 138
e 114 140
e 114 141
e 114 145
e 114 149
e 115 117
e 115 119
e 115 122
e 115 124
e 115 126
e 115 133
e 115 134
e 115 135
e 115 138
e 115 144
e 115 145
e 116 118
e 116 125
e 116 126
e 116 128
e 116 133
e 116 134
e 116 136
e 116 138
e 116 140
e 116 144
e 116 148
e 116 149
e 116 150
e 117 120
e 117 121
e 117 124
e 117 126
e 117 127
e 117 129
e 117 130
e 117 131
e 117 133
e 117 138
e 117 140
e 118 120
e 118 131
e 118 134
e 118 141
e 118 144
e 119 120
e 119 121
e 119 137
e 119 142
e 119 145
e 119 148
e 120 121
e 120 126
e 120 127
e 120 129
e 120 132
e 120 133
e 120 136
e 120 137
e 120 139
e 120 144
e 120 146
e 120 149
e 121 124
e 121 125
e 121 127
e 121 135
e 121 141
e 121 143
e 121 144
e 121 147
e 121 148
e 122 130
e 122 135
e 122 136
e 122 145
e 122 146
e 122 149
e 122 150
e 123 126
e 123 127
e 123 129
e 123 132
e 123 136
e 123 139
e 123 143
e 123 144
e 123 149
e 123 150
e 124 127
e 124 128
e 124 134
e 124 135
e 124 137
e 124 138
e 124 145
e 124 147
e 125 130
e 125 133
e 125 142
e 125 143
e 125 144
e 125 145
e 125 146
e 125 147
e 126 127
e 126 129
e 126 130
e 126 133
e 126 143
e 126 145
e 127 130
e 127 133
e 127 137
e 127 139
e 127 141
e 127 142
e 128 132
e 128 134
e 128 136
e 128 145
e 128 146
e 128 147
e 129 133
e 129 134
e 129 137
e 129 142
e 129 146
e 129 148
e 129 150
e 130 133
e 130 134
e 130 135
e 130 136
e 130 139
e 130 141
e 130 147
e 131 133
e 131 134
e 131 138
e 131 140
e 131 142
e 131 144
e 132 134
e 132 135
e 132 140
e 132 144
e 132 146
e 132 149
e 133 139
e 133 140
e 133 144
e 133 146
e 133 147
e 133 150
e 134 135
e 134 138
e 134 144
e 134 145
e 135 138
e 135 141
e 135 143
e 135 145
e 136 137
e 136 144
e 136 146
e 136 147
e 136 150
e 137 142
e 137 145
e 138 144
e 138 145
e 139 143
e 140 142
e 140 145
e 140 146
e 140 149
e 141 143
e 141 146
e 141 147
e 141 149
e 141 150
e 143 144
e 143 146
e 143 148
e 144 146
e 144 148
e 144 149
e 144 150
e 146 147
e 146 149
e 147 149
e 148 149
